p cnf 32 157

 c first condition 
 -1 -2 -3 0 
 -1 -2 -4 0 
 -1 -3 -4 0 
 -2 -3 -4 0 

 c second condition 
 2 3 4 0 
 1 3 4 0 
 1 2 4 0 
 1 2 3 0 

 c third condition 
 -1 -5 -6 0 
 -1 -5 -7 0 
 -1 -6 -7 0 
 -2 -8 -9 0 
 -2 -8 -10 0 
 -2 -9 -10 0 
 -3 -11 -12 0 
 -3 -11 -13 0 
 -3 -12 -13 0 
 -4 -14 -15 0 
 -4 -14 -16 0 
 -4 -15 -16 0 
 -5 -6 -7 0 
 -8 -9 -10 0 
 -11 -12 -13 0 
 -14 -15 -16 0 

 c fourth condition 
 5 6 7 0 
 1 6 7 0 
 1 5 7 0 
 1 5 6 0 
 8 9 10 0 
 2 9 10 0 
 2 8 10 0 
 2 8 9 0 
 11 12 13 0 
 3 12 13 0 
 3 11 13 0 
 3 11 12 0 
 14 15 16 0 
 4 15 16 0 
 4 14 16 0 
 4 14 15 0 

 c fifth condition 
 -1 -2 -5 0 
 -1 -3 -6 0 
 -1 -4 -7 0 
 -2 -3 -9 0 
 -2 -4 -10 0 
 -3 -4 -13 0 

 c sixth condition 
 -5 8 0 
 -8 5 0 
 -6 11 0 
 -11 6 0 
 -7 14 0 
 -14 7 0 
 -9 12 0 
 -12 9 0 
 -10 15 0 
 -15 10 0 
 -13 16 0 
 -16 13 0 

 c seventh condition 
 -17 -18 0 
 -17 -19 0 
 -17 -20 0 
 -18 -19 0 
 -18 -20 0 
 -19 -20 0 
 -21 -22 0 
 -21 -23 0 
 -21 -24 0 
 -22 -23 0 
 -22 -24 0 
 -23 -24 0 
 -25 -26 0 
 -25 -27 0 
 -25 -28 0 
 -26 -27 0 
 -26 -28 0 
 -27 -28 0 
 -29 -30 0 
 -29 -31 0 
 -29 -32 0 
 -30 -31 0 
 -30 -32 0 
 -31 -32 0 

 c eighth condition 
 17 18 19 20 0 
 17 18 19 20 0 
 17 18 19 20 0 
 17 18 19 20 0 
 21 22 23 24 0 
 21 22 23 24 0 
 21 22 23 24 0 
 21 22 23 24 0 
 25 26 27 28 0 
 25 26 27 28 0 
 25 26 27 28 0 
 25 26 27 28 0 
 29 30 31 32 0 
 29 30 31 32 0 
 29 30 31 32 0 
 29 30 31 32 0 

 c ninth condition 
 -17 -21 0 
 -17 -25 0 
 -17 -29 0 
 -18 -22 0 
 -18 -26 0 
 -18 -30 0 
 -19 -23 0 
 -19 -27 0 
 -19 -31 0 
 -20 -24 0 
 -20 -28 0 
 -20 -32 0 
 -21 -25 0 
 -21 -29 0 
 -22 -26 0 
 -22 -30 0 
 -23 -27 0 
 -23 -31 0 
 -24 -28 0 
 -24 -32 0 
 -25 -29 0 
 -26 -30 0 
 -27 -31 0 
 -28 -32 0 

 c tenth condition 
 -1 -18 0 
 -1 -19 0 
 -2 -22 0 
 -2 -23 0 
 -3 -26 0 
 -3 -27 0 
 -4 -30 0 
 -4 -31 0 

 c eleventh condition 
 -5 -17 22 0 
 -5 -18 21 23 0 
 -5 -19 22 24 0 
 -5 -20 23 0 
 -6 -17 26 0 
 -6 -18 25 27 0 
 -6 -19 26 28 0 
 -6 -20 27 0 
 -7 -17 30 0 
 -7 -18 29 31 0 
 -7 -19 30 32 0 
 -7 -20 31 0 
 -9 -21 26 0 
 -9 -22 25 27 0 
 -9 -23 26 28 0 
 -9 -24 27 0 
 -10 -21 30 0 
 -10 -22 29 31 0 
 -10 -23 30 32 0 
 -10 -24 31 0 
 -13 -25 30 0 
 -13 -26 29 31 0 
 -13 -27 30 32 0 
 -13 -28 31 0 

 c twelfth condition 
6 0 
9 0 
16 0 
